p edge 19 112
e 1 11
e 1 8
e 1 2
e 1 3
e 1 2
e 1 3
e 1 8
e 1 11
e 2 5
e 2 4
e 2 3
e 2 13
e 2 3
e 2 4
e 2 5
e 2 13
e 3 6
e 3 6
e 4 14
e 4 5
e 4 6
e 4 7
e 4 9
e 4 16
e 4 5
e 4 6
e 4 7
e 4 9
e 4 14
e 4 16
e 5 10
e 5 6
e 5 7
e 5 11
e 5 14
e 5 17
e 5 19
e 5 6
e 5 7
e 5 10
e 5 11
e 5 14
e 5 17
e 5 19
e 6 11
e 6 7
e 6 7
e 6 11
e 7 13
e 7 16
e 7 15
e 7 13
e 7 15
e 7 16
e 8 12
e 8 19
e 8 9
e 8 10
e 8 11
e 8 9
e 8 10
e 8 11
e 8 12
e 8 19
e 9 12
e 9 10
e 9 11
e 9 16
e 9 10
e 9 11
e 9 12
e 9 16
e 10 15
e 10 11
e 10 18
e 10 11
e 10 15
e 10 18
e 11 14
e 11 17
e 11 19
e 11 14
e 11 17
e 11 19
e 12 19
e 12 19
e 13 17
e 13 16
e 13 14
e 13 15
e 13 14
e 13 15
e 13 16
e 13 17
e 14 15
e 14 17
e 14 19
e 14 15
e 14 17
e 14 19
e 15 17
e 15 18
e 15 17
e 15 18
e 16 17
e 16 17
e 17 18
e 17 19
e 17 18
e 17 19
e 18 19
e 18 19
